sat
(:binary-propagations  497
 :decisions            733
 :del-clause           79
 :final-checks         9
 :max-generation       1
 :max-memory           24.16
 :memory               21.29
 :mk-bool-var          714
 :mk-clause            140
 :mk-clause-binary     530
 :num-allocs           13478702
 :num-checks           1
 :propagations         546
 :quant-instantiations 84
 :restarts             8
 :rlimit-count         208420
 :time                 0.05)
